outputs/case_58.model.txt
reopen_application_approved = False
stop_business_period_months = 0
complies_company_law_article_16_1 = True
discretionary_investment_account_net_asset_value = 1000000
capital_purchase_approved_securities_investment_trust_funds = False
stop_business_period_expired = False
extension_applied = False
unauthorized_stop_business_months = 0
stop_business_application_count = 0
provides_collateral = False
provides_bill_endorsement = False
reopen_application_submitted = False
capital_purchase_domestic_government_bonds = False
months_since_permit = 0
investment_in_single_company_bond = True
investment_in_trust_beneficiary_certificates_and_asset_backed_securities = True
capital_purchase_domestic_treasury_bills_or_commercial_papers = False
provides_guarantee = False
stop_business_application_submitted = False
approved_by_authority = True
investment_in_single_company_stock_bond_warrant = True
extension_months = 0
capital_deposit_in_domestic_banks = False
capital_other_approved_uses = True
contract_signed = True
client_risk_tolerance_assessed = True
membership_required_to_operate = True
business_type_other_approved = True
capital_used_for_other_purposes = False
client_financial_status_assessed = True
written_contract_signed = True
compensation_requested = True
contract_includes_service_scope = True
contract_includes_parties_info = True
stop_business_application_valid = True
personnel_registration_revoked = False
penalty_requested = False
application_form_submitted = True
contract_includes_dispute_resolution_and_jurisdiction = True
stop_business_permit_revoked = False
contract_includes_service_method = True
client_investment_knowledge_assessed = True
company_registration_completed = True
joined_trade_association = True
violates_article_7 = False
contract_allows_client_termination_within_7_days = True
client_investment_assessment_done = True
contract_includes_fees_and_payment = True
business_license_application_complete = True
contract_includes_effective_date_and_duration = True
personnel_full_time = True
contract_includes_modification_and_termination = True
business_license_revoked = False
no_false_or_concealment_statement = True
contract_includes_rights_obligations = True
capital_usage_limited = True
guarantee_and_collateral_restricted = True
qualified_personnel_list_submitted = True
business_premises_independent = True
contract_includes_confidentiality = True
investment_asset_diversification_compliant = True
contract_prohibits_client_disclosure = True
business_rules_included = True
has_article_68_disqualification = False
capital_loan_to_others = False
contract_includes_other_mandatory_items = True
contract_includes_refund_ratio_and_method = True
capital_purchase_non_operating_real_estate = False
contract_termination_compensation_compliant = True
client_investment_experience_assessed = True
business_types_approved = True
business_premises_documented = True
deposit_of_business_guarantee_submitted = True
no_article_68_disqualification_declaration_submitted = True
damages_requested = False
personnel_registration_compliant = True
unauthorized_stop_business_revoked = False
documents_submitted = True
business_type_discretionary_investment = True
business_type_securities_advisory = True
association_membership_proof_submitted = True
penalty = False
personnel_registered = True
all_personnel_full_time_declaration_submitted = True
does_not_meet_qualification = False
/0 = [else -> 1/1000000]